<number of tasks>
50

<cycle time>
1000

<order strength>
0.598


<task times>
1 197
2 89
3 144
4 295
5 139
6 43
7 160
8 189
9 134
10 177
11 63
12 155
13 92
14 90
15 85
16 156
17 291
18 216
19 119
20 118
21 153
22 29
23 152
24 144
25 307
26 108
27 77
28 144
29 294
30 51
31 153
32 164
33 221
34 90
35 38
36 187
37 65
38 111
39 131
40 62
41 137
42 69
43 327
44 35
45 57
46 57
47 29
48 92
49 99
50 95

<precedence relations>
1,7
2,7
3,7
4,7
5,9
5,10
5,17
6,7
6,8
7,11
7,12
7,13
7,14
7,15
8,32
9,41
10,15
10,16
11,21
11,31
12,22
12,27
13,16
13,17
14,16
14,17
14,18
15,18
15,20
16,41
17,19
17,20
17,22
17,29
18,19
18,21
18,24
19,32
20,23
20,24
20,25
20,27
20,28
20,32
21,22
21,23
21,26
22,32
23,41
25,30
25,31
26,29
26,30
28,30
28,42
29,32
30,33
30,34
31,33
31,42
32,35
32,36
32,37
32,38
32,39
32,40
32,42
33,41
35,50
39,50
40,49
41,43
41,44
41,45
41,46
41,47
41,48
43,50
46,49
46,50

<end>
